<number of tasks>
58

<cycle time>
68

<task times>
1 10
2 53
3 41
4 36
5 35
6 17
7 34
8 23
9 14
10 52
11 33
12 34
13 12
14 52
15 12
16 33
17 44
18 7
19 15
20 13
21 29
22 37
23 43
24 23
25 24
26 9
27 16
28 12
29 26
30 22
31 51
32 47
33 34
34 23
35 12
36 52
37 12
38 33
39 44
40 7
41 15
42 13
43 29
44 37
45 43
46 23
47 24
48 9
49 16
50 12
51 26
52 12
53 52
54 12
55 33
56 44
57 7
58 15

<precedence relations>
1,9
2,25
3,21
3,22
4,10
5,36
6,23
6,24
7,43
8,44
9,11
11,13
11,14
11,15
12,17
13,17
14,17
15,17
16,18
17,20
18,19
19,23
20,21
20,25
21,26
21,44
22,27
23,31
24,31
25,38
26,29
27,30
28,32
28,33
29,31
30,34
31,36
32,45
33,35
34,36
35,43
36,37
36,38
37,39
37,40
37,41
38,52
39,43
40,43
41,42
42,43
43,45
44,45
45,46
45,48
45,49
46,47
46,50
47,51
48,55
49,58
50,58
51,52
52,53
53,54
54,55
54,56
55,57
56,57
57,58

<setup times forward>
1,2:8
1,4:3
1,5:3
1,6:3
1,7:8
1,10:3
1,12:2
1,16:2
1,18:7
1,19:1
1,22:5
1,23:1
1,24:9
1,27:3
1,28:8
1,30:9
1,32:7
1,33:8
1,34:9
1,35:2
2,1:8
2,3:8
2,4:5
2,5:11
2,6:5
2,8:8
2,9:8
2,10:11
2,11:11
2,12:6
2,13:12
2,14:12
2,15:5
2,16:6
2,17:8
2,18:15
2,19:9
2,20:15
2,21:3
2,22:3
2,23:9
2,24:17
2,25:17
2,26:9
2,27:11
2,29:6
2,30:17
2,31:2
2,32:15
2,34:17
2,35:10
2,36:18
2,37:10
2,39:10
2,40:6
2,41:6
2,42:6
2,43:6
2,44:6
2,45:2
2,46:2
2,47:3
2,48:3
2,49:3
2,50:3
2,51:3
3,2:8
3,4:3
3,5:3
3,6:3
3,7:8
3,10:3
3,11:3
3,12:2
3,13:4
3,14:4
3,15:3
3,16:2
3,18:7
3,19:1
3,20:7
3,21:5
3,22:5
3,23:1
3,24:9
3,25:9
3,28:8
3,32:7
3,33:8
3,35:2
4,1:3
4,2:5
4,3:3
4,5:6
4,7:5
4,8:3
4,9:3
4,10:6
4,11:6
4,12:1
4,13:7
4,14:7
4,16:1
4,17:3
4,18:10
4,19:4
4,20:10
4,21:2
4,22:2
4,23:4
4,24:12
4,25:12
4,26:4
4,27:6
4,28:5
4,29:1
4,30:12
4,31:3
4,32:10
4,33:5
4,34:12
4,35:5
4,36:13
4,37:5
4,38:12
4,39:5
4,40:1
4,41:1
4,42:1
4,43:1
4,44:1
4,45:3
4,46:3
4,47:2
4,48:2
4,49:2
4,50:2
4,51:2
4,52:10
4,53:10
4,54:2
4,55:2
4,56:5
4,57:5
4,58:5
5,1:3
5,2:11
5,3:3
5,4:6
5,6:6
5,7:11
5,8:3
5,9:3
5,12:5
5,13:1
5,14:1
5,15:6
5,16:5
5,17:3
5,18:4
5,19:2
5,20:4
5,21:8
5,22:8
5,23:2
5,24:6
5,25:6
5,26:2
5,28:11
5,29:5
5,30:6
5,31:9
5,32:4
5,33:11
5,34:6
5,35:1
5,36:7
5,44:5
6,1:3
6,2:5
6,3:3
6,5:6
6,7:5
6,8:3
6,9:3
6,10:6
6,11:6
6,12:1
6,13:7
6,14:7
6,16:1
6,17:3
6,18:10
6,19:4
6,20:10
6,21:2
6,22:2
6,23:4
6,24:12
6,25:12
6,26:4
6,27:6
6,28:5
6,29:1
6,30:12
6,32:10
6,33:5
6,34:12
6,35:5
6,44:1
7,1:8
7,3:8
7,4:5
7,5:11
7,6:5
7,8:8
7,9:8
7,10:11
7,11:11
7,12:6
7,13:12
7,14:12
7,15:5
7,16:6
7,17:8
7,18:15
7,19:9
7,20:15
7,21:3
7,22:3
7,23:9
7,24:17
7,25:17
7,26:9
7,27:11
7,29:6
7,30:17
7,31:2
7,32:15
7,34:17
7,35:10
7,36:18
7,37:10
7,38:17
7,39:10
7,40:6
7,41:6
7,42:6
7,43:6
7,44:6
8,2:8
8,4:3
8,5:3
8,6:3
8,7:8
8,10:3
8,11:3
8,12:2
8,13:4
8,14:4
8,15:3
8,16:2
8,18:7
8,19:1
8,20:7
8,21:5
8,22:5
8,23:1
8,24:9
8,25:9
8,26:1
8,27:3
8,28:8
8,29:2
8,30:9
8,31:6
8,32:7
8,33:8
8,34:9
8,35:2
8,36:10
8,37:2
8,38:9
8,39:2
8,40:2
8,41:2
8,42:2
8,43:2
8,44:2
9,2:8
9,4:3
9,5:3
9,6:3
9,7:8
9,10:3
9,11:3
9,12:2
9,16:2
9,18:7
9,19:1
9,22:5
9,23:1
9,24:9
9,27:3
9,28:8
9,30:9
9,32:7
9,33:8
9,34:9
9,35:2
10,1:3
10,2:11
10,3:3
10,6:6
10,7:11
10,8:3
10,9:3
10,12:5
10,13:1
10,14:1
10,15:6
10,16:5
10,17:3
10,18:4
10,19:2
10,20:4
10,21:8
10,22:8
10,23:2
10,24:6
10,25:6
10,26:2
10,28:11
10,29:5
10,30:6
10,31:9
10,32:4
10,33:11
10,34:6
10,35:1
10,36:7
10,37:1
10,38:6
10,39:1
10,40:5
10,41:5
10,42:5
10,43:5
10,44:5
10,45:9
10,46:9
10,47:8
10,48:8
10,49:8
10,50:8
10,51:8
10,52:4
10,53:4
10,54:8
10,55:8
10,56:1
10,57:1
10,58:1
11,2:11
11,3:3
11,4:6
11,6:6
11,7:11
11,8:3
11,12:5
11,13:1
11,14:1
11,15:6
11,16:5
11,18:4
11,19:2
11,22:8
11,23:2
11,24:6
11,28:11
11,30:6
11,32:4
11,33:11
11,34:6
11,35:1
12,1:2
12,2:6
12,3:2
12,4:1
12,5:5
12,6:1
12,7:6
12,8:2
12,9:2
12,10:5
12,11:5
12,13:6
12,14:6
12,15:1
12,17:2
12,18:9
12,19:3
12,22:3
12,23:3
12,24:11
12,27:5
12,28:6
12,30:11
12,32:9
12,33:6
12,34:11
12,35:4
13,2:12
13,3:4
13,4:7
13,5:1
13,6:7
13,7:12
13,8:4
13,10:1
13,12:6
13,15:7
13,16:6
13,17:4
13,18:3
13,19:3
13,22:9
13,23:3
13,24:5
13,27:1
13,28:12
13,30:5
13,32:3
13,33:12
13,34:5
13,35:2
14,2:12
14,3:4
14,4:7
14,5:1
14,6:7
14,7:12
14,8:4
14,10:1
14,12:6
14,15:7
14,16:6
14,17:4
14,18:3
14,19:3
14,22:9
14,23:3
14,24:5
14,27:1
14,28:12
14,30:5
14,32:3
14,33:12
14,34:5
14,35:2
15,2:5
15,3:3
15,5:6
15,7:5
15,8:3
15,10:6
15,12:1
15,13:7
15,14:7
15,16:1
15,17:3
15,18:10
15,19:4
15,22:2
15,23:4
15,24:12
15,27:6
15,28:5
15,30:12
15,32:10
15,33:5
15,34:12
15,35:5
16,1:2
16,2:6
16,3:2
16,4:1
16,5:5
16,6:1
16,7:6
16,8:2
16,9:2
16,10:5
16,11:5
16,13:6
16,14:6
16,15:1
16,17:2
16,18:9
16,20:9
16,21:3
16,22:3
16,24:11
16,25:11
16,26:3
16,27:5
16,28:6
16,30:11
16,32:9
16,33:6
16,34:11
16,35:4
17,2:8
17,4:3
17,5:3
17,6:3
17,7:8
17,10:3
17,16:2
17,18:7
17,19:1
17,20:7
17,22:5
17,23:1
17,24:9
17,27:3
17,28:8
17,30:9
17,32:7
17,33:8
17,34:9
17,35:2
18,1:7
18,2:15
18,3:7
18,4:10
18,5:4
18,6:10
18,7:15
18,8:7
18,9:7
18,10:4
18,11:4
18,12:9
18,13:3
18,14:3
18,15:10
18,17:7
18,19:6
18,21:12
18,22:12
18,24:2
18,25:2
18,26:6
18,27:4
18,28:15
18,29:9
18,30:2
18,33:15
18,34:2
18,35:5
18,44:9
19,1:1
19,2:9
19,3:1
19,4:4
19,5:2
19,6:4
19,7:9
19,8:1
19,9:1
19,10:2
19,11:2
19,12:3
19,13:3
19,14:3
19,15:4
19,17:1
19,20:6
19,21:6
19,22:6
19,24:8
19,25:8
19,27:2
19,28:9
19,29:3
19,30:8
19,32:6
19,33:9
19,34:8
19,35:1
19,44:3
20,2:15
20,3:7
20,4:10
20,5:4
20,6:10
20,7:15
20,8:7
20,10:4
20,16:9
20,19:6
20,21:12
20,22:12
20,23:6
20,24:2
20,25:2
20,27:4
20,28:15
20,30:2
20,33:15
20,34:2
20,35:5
21,2:3
21,4:2
21,5:8
21,6:2
21,7:3
21,8:5
21,10:8
21,16:3
21,18:12
21,19:6
21,23:6
21,24:14
21,25:14
21,26:6
21,27:8
21,28:3
21,30:14
21,32:12
21,33:3
21,34:14
21,35:7
21,44:3
22,1:5
22,2:3
22,4:2
22,5:8
22,6:2
22,7:3
22,8:5
22,9:5
22,10:8
22,11:8
22,12:3
22,13:9
22,14:9
22,15:2
22,16:3
22,17:5
22,18:12
22,19:6
22,20:12
22,23:6
22,24:14
22,25:14
22,26:6
22,27:8
22,28:3
22,29:3
22,31:1
22,32:12
22,33:3
22,35:7
22,44:3
23,1:1
23,2:9
23,3:1
23,4:4
23,5:2
23,7:9
23,8:1
23,9:1
23,10:2
23,11:2
23,12:3
23,13:3
23,14:3
23,15:4
23,17:1
23,20:6
23,21:6
23,22:6
23,24:8
23,25:8
23,27:2
23,28:9
23,29:3
23,30:8
23,31:7
23,32:6
23,33:9
23,34:8
23,35:1
23,44:3
24,1:9
24,2:17
24,3:9
24,4:12
24,5:6
24,7:17
24,8:9
24,9:9
24,10:6
24,11:6
24,12:11
24,13:5
24,14:5
24,15:12
24,16:11
24,17:9
24,18:2
24,19:8
24,20:2
24,21:14
24,22:14
24,23:8
24,26:8
24,27:6
24,28:17
24,29:11
24,31:15
24,32:2
24,33:17
24,35:7
24,44:11
25,3:9
25,4:12
25,5:6
25,6:12
25,7:17
25,8:9
25,10:6
25,16:11
25,18:2
25,19:8
25,21:14
25,22:14
25,23:8
25,26:8
25,27:6
25,28:17
25,29:11
25,31:15
25,32:2
25,33:17
25,35:7
25,36:1
25,37:7
25,39:7
25,40:11
25,41:11
25,42:11
25,43:11
25,44:11
25,45:15
25,46:15
25,47:14
25,48:14
25,49:14
25,50:14
25,51:14
26,2:9
26,4:4
26,5:2
26,6:4
26,7:9
26,8:1
26,10:2
26,16:3
26,18:6
26,22:6
26,24:8
26,25:8
26,27:2
26,28:9
26,29:3
26,30:8
26,32:6
26,33:9
26,34:8
26,35:1
26,44:3
27,1:3
27,2:11
27,4:6
27,6:6
27,7:11
27,8:3
27,9:3
27,12:5
27,13:1
27,14:1
27,15:6
27,16:5
27,17:3
27,18:4
27,19:2
27,20:4
27,21:8
27,23:2
27,24:6
27,25:6
27,26:2
27,28:11
27,29:5
27,30:6
27,31:9
27,32:4
27,33:11
27,35:1
27,44:5
28,1:8
28,3:8
28,4:5
28,5:11
28,6:5
28,8:8
28,9:8
28,10:11
28,11:11
28,12:6
28,13:12
28,14:12
28,15:5
28,16:6
28,17:8
28,18:15
28,19:9
28,20:15
28,21:3
28,22:3
28,23:9
28,24:17
28,25:17
28,26:9
28,27:11
28,29:6
28,30:17
28,31:2
28,32:15
28,34:17
28,36:18
28,37:10
28,38:17
28,39:10
28,40:6
28,41:6
28,42:6
28,44:6
29,2:6
29,4:1
29,5:5
29,6:1
29,7:6
29,8:2
29,10:5
29,18:9
29,19:3
29,22:3
29,23:3
29,24:11
29,25:11
29,27:5
29,28:6
29,30:11
29,31:4
29,32:9
29,33:6
29,34:11
29,35:4
30,1:9
30,2:17
30,4:12
30,5:6
30,6:12
30,7:17
30,8:9
30,9:9
30,10:6
30,11:6
30,12:11
30,13:5
30,14:5
30,15:12
30,16:11
30,17:9
30,18:2
30,19:8
30,20:2
30,21:14
30,23:8
30,26:8
30,28:17
30,29:11
30,31:15
30,32:2
30,33:17
30,35:7
30,44:11
31,2:2
31,4:3
31,5:9
31,7:2
31,8:6
31,10:9
31,22:1
31,25:15
31,27:9
31,28:2
31,30:15
31,32:13
31,33:2
31,34:15
31,35:8
31,36:16
31,44:4
32,1:7
32,2:15
32,3:7
32,4:10
32,5:4
32,6:10
32,7:15
32,8:7
32,9:7
32,10:4
32,11:4
32,12:9
32,13:3
32,14:3
32,15:10
32,16:9
32,17:7
32,19:6
32,21:12
32,22:12
32,23:6
32,24:2
32,25:2
32,26:6
32,27:4
32,29:9
32,30:2
32,31:13
32,33:15
32,34:2
32,35:5
32,36:3
32,37:5
32,38:2
32,39:5
32,40:9
32,41:9
32,42:9
32,43:9
32,44:9
32,45:13
33,1:8
33,3:8
33,4:5
33,5:11
33,6:5
33,8:8
33,9:8
33,10:11
33,11:11
33,12:6
33,13:12
33,14:12
33,15:5
33,16:6
33,17:8
33,18:15
33,19:9
33,20:15
33,21:3
33,22:3
33,23:9
33,24:17
33,25:17
33,26:9
33,27:11
33,29:6
33,30:17
33,31:2
33,32:15
33,34:17
33,35:10
33,36:18
33,37:10
33,38:17
33,39:10
33,40:6
33,41:6
33,42:6
33,44:6
34,1:9
34,2:17
34,4:12
34,5:6
34,6:12
34,7:17
34,8:9
34,9:9
34,10:6
34,11:6
34,12:11
34,13:5
34,14:5
34,15:12
34,16:11
34,17:9
34,18:2
34,19:8
34,20:2
34,21:14
34,23:8
34,26:8
34,28:17
34,29:11
34,31:15
34,32:2
34,33:17
34,35:7
34,36:1
34,44:11
35,1:2
35,2:10
35,3:2
35,4:5
35,5:1
35,6:5
35,7:10
35,8:2
35,9:2
35,10:1
35,11:1
35,12:4
35,13:2
35,14:2
35,15:5
35,16:4
35,17:2
35,18:5
35,19:1
35,20:5
35,21:7
35,22:7
35,23:1
35,24:7
35,25:7
35,26:1
35,27:1
35,29:4
35,30:7
35,31:8
35,32:5
35,34:7
35,36:8
35,38:7
35,40:4
35,41:4
35,42:4
35,43:4
35,44:4
36,2:18
36,4:13
36,7:18
36,8:10
36,10:7
36,25:1
36,28:18
36,32:3
36,33:18
36,35:8
36,37:8
36,38:1
36,44:12
37,2:10
37,4:5
37,7:10
37,8:2
37,10:1
37,25:7
37,28:10
37,32:5
37,33:10
37,38:7
37,40:4
37,41:4
37,44:4
38,4:12
38,7:17
38,8:9
38,10:6
38,28:17
38,32:2
38,33:17
38,35:7
38,37:7
38,39:7
38,40:11
38,41:11
38,42:11
38,43:11
38,44:11
38,45:15
38,46:15
38,47:14
38,48:14
38,49:14
38,50:14
38,51:14
38,52:2
39,2:10
39,4:5
39,7:10
39,8:2
39,10:1
39,25:7
39,28:10
39,32:5
39,33:10
39,38:7
39,40:4
39,41:4
39,42:4
39,43:4
39,44:4
40,2:6
40,4:1
40,7:6
40,8:2
40,10:5
40,25:11
40,28:6
40,32:9
40,33:6
40,35:4
40,38:11
40,39:4
41,2:6
41,4:1
41,7:6
41,8:2
41,10:5
41,25:11
41,28:6
41,32:9
41,33:6
41,35:4
41,38:11
41,39:4
42,2:6
42,4:1
42,7:6
42,8:2
42,10:5
42,25:11
42,28:6
42,32:9
42,33:6
42,35:4
42,38:11
42,39:4
43,2:6
43,4:1
43,8:2
43,10:5
43,25:11
43,32:9
43,38:11
43,45:4
44,2:6
44,4:1
44,5:5
44,6:1
44,7:6
44,10:5
44,18:9
44,19:3
44,22:3
44,23:3
44,24:11
44,25:11
44,26:3
44,27:5
44,28:6
44,30:11
44,31:4
44,32:9
44,33:6
44,34:11
44,35:4
44,36:12
44,37:4
44,38:11
44,39:4
44,45:4
45,2:2
45,4:3
45,10:9
45,25:15
45,38:15
45,48:1
45,49:1
46,2:2
46,4:3
46,10:9
46,25:15
46,38:15
46,47:1
46,48:1
46,49:1
46,50:1
47,2:3
47,4:2
47,10:8
47,25:14
47,38:14
48,2:3
48,4:2
48,10:8
48,25:14
48,38:14
48,46:1
48,52:12
48,53:12
48,56:7
49,2:3
49,4:2
49,10:8
49,25:14
49,38:14
49,46:1
49,52:12
49,53:12
49,56:7
49,57:7
49,58:7
50,2:3
50,4:2
50,10:8
50,25:14
50,38:14
50,52:12
50,53:12
50,56:7
50,57:7
50,58:7
51,2:3
51,4:2
51,10:8
51,25:14
51,38:14
51,52:12
52,4:10
52,10:4
52,48:12
52,49:12
52,50:12
53,4:10
53,10:4
53,48:12
53,49:12
53,50:12
53,54:12
54,4:2
54,10:8
54,56:7
55,4:2
55,10:8
55,56:7
55,57:7
56,4:5
56,10:1
56,48:7
56,49:7
56,50:7
56,55:7
57,4:5
57,10:1
57,49:7
57,50:7
58,4:5
58,10:1

<setup times backward>
1,5:3
1,10:3
1,18:7
1,19:1
1,23:1
1,24:9
1,27:3
1,30:9
1,32:7
1,34:9
1,35:2
2,1:8
2,3:8
2,4:5
2,5:11
2,6:5
2,8:8
2,9:8
2,10:11
2,11:11
2,12:6
2,13:12
2,14:12
2,15:5
2,16:6
2,17:8
2,18:15
2,19:9
2,20:15
2,21:3
2,22:3
2,23:9
2,24:17
2,26:9
2,27:11
2,29:6
2,30:17
2,31:2
2,32:15
2,34:17
2,35:10
2,36:18
2,37:10
2,39:10
2,40:6
2,41:6
2,42:6
2,43:6
2,44:6
2,45:2
2,46:2
2,47:3
2,48:3
2,49:3
2,50:3
2,51:3
3,5:3
3,10:3
3,11:3
3,13:4
3,14:4
3,18:7
3,19:1
3,20:7
3,23:1
3,24:9
3,25:9
3,32:7
3,35:2
4,1:3
4,3:3
4,5:6
4,8:3
4,9:3
4,11:6
4,12:1
4,13:7
4,14:7
4,16:1
4,17:3
4,18:10
4,19:4
4,20:10
4,23:4
4,24:12
4,25:12
4,26:4
4,27:6
4,29:1
4,30:12
4,32:10
4,34:12
4,35:5
4,36:13
4,37:5
4,38:12
4,39:5
4,40:1
4,41:1
4,42:1
4,43:1
4,44:1
4,52:10
4,53:10
4,56:5
4,57:5
4,58:5
5,13:1
5,14:1
5,18:4
5,20:4
5,24:6
5,25:6
5,30:6
5,32:4
5,34:6
6,1:3
6,3:3
6,5:6
6,8:3
6,9:3
6,10:6
6,11:6
6,12:1
6,13:7
6,14:7
6,16:1
6,17:3
6,18:10
6,19:4
6,20:10
6,25:12
6,26:4
6,27:6
6,29:1
6,30:12
6,32:10
6,34:12
6,35:5
6,44:1
7,1:8
7,3:8
7,4:5
7,5:11
7,6:5
7,8:8
7,9:8
7,10:11
7,11:11
7,12:6
7,13:12
7,14:12
7,15:5
7,16:6
7,17:8
7,18:15
7,19:9
7,20:15
7,21:3
7,22:3
7,23:9
7,24:17
7,25:17
7,26:9
7,27:11
7,29:6
7,30:17
7,31:2
7,32:15
7,34:17
7,35:10
7,36:18
7,37:10
7,38:17
7,39:10
7,40:6
7,41:6
7,42:6
7,44:6
8,5:3
8,10:3
8,11:3
8,13:4
8,14:4
8,18:7
8,19:1
8,20:7
8,23:1
8,24:9
8,25:9
8,26:1
8,27:3
8,30:9
8,32:7
8,34:9
8,35:2
8,36:10
8,37:2
8,38:9
8,39:2
9,5:3
9,10:3
9,18:7
9,19:1
9,23:1
9,24:9
9,27:3
9,30:9
9,32:7
9,34:9
9,35:2
10,13:1
10,14:1
10,18:4
10,20:4
10,24:6
10,25:6
10,30:6
10,32:4
10,34:6
10,36:7
10,38:6
10,52:4
10,53:4
11,18:4
11,24:6
11,30:6
11,32:4
11,34:6
12,1:2
12,3:2
12,5:5
12,8:2
12,9:2
12,10:5
12,11:5
12,13:6
12,14:6
12,18:9
12,19:3
12,23:3
12,24:11
12,27:5
12,30:11
12,32:9
12,34:11
12,35:4
13,18:3
13,24:5
13,30:5
13,32:3
13,34:5
14,18:3
14,24:5
14,30:5
14,32:3
14,34:5
15,1:3
15,3:3
15,5:6
15,8:3
15,9:3
15,10:6
15,11:6
15,12:1
15,13:7
15,14:7
15,16:1
15,18:10
15,19:4
15,23:4
15,24:12
15,27:6
15,30:12
15,32:10
15,34:12
15,35:5
16,1:2
16,3:2
16,5:5
16,8:2
16,9:2
16,10:5
16,11:5
16,13:6
16,14:6
16,17:2
16,20:9
16,24:11
16,25:11
16,26:3
16,27:5
16,30:11
16,32:9
16,34:11
16,35:4
17,5:3
17,10:3
17,11:3
17,13:4
17,14:4
17,18:7
17,19:1
17,23:1
17,24:9
17,27:3
17,30:9
17,32:7
17,34:9
17,35:2
18,24:2
18,25:2
18,30:2
18,34:2
19,5:2
19,10:2
19,11:2
19,13:3
19,14:3
19,18:6
19,20:6
19,24:8
19,25:8
19,27:2
19,30:8
19,32:6
19,34:8
19,35:1
20,24:2
20,30:2
20,34:2
21,1:5
21,3:5
21,4:2
21,5:8
21,6:2
21,8:5
21,9:5
21,10:8
21,11:8
21,12:3
21,13:9
21,14:9
21,15:2
21,16:3
21,17:5
21,18:12
21,19:6
21,20:12
21,23:6
21,24:14
21,25:14
21,27:8
21,30:14
21,32:12
21,34:14
21,35:7
22,1:5
22,3:5
22,4:2
22,5:8
22,6:2
22,8:5
22,9:5
22,10:8
22,11:8
22,12:3
22,13:9
22,14:9
22,15:2
22,16:3
22,17:5
22,18:12
22,19:6
22,20:12
22,23:6
22,24:14
22,25:14
22,26:6
22,29:3
22,32:12
22,35:7
22,44:3
23,5:2
23,10:2
23,11:2
23,13:3
23,14:3
23,18:6
23,20:6
23,24:8
23,25:8
23,27:2
23,30:8
23,32:6
23,34:8
23,35:1
25,36:1
26,5:2
26,10:2
26,11:2
26,13:3
26,14:3
26,18:6
26,20:6
26,24:8
26,25:8
26,27:2
26,30:8
26,32:6
26,34:8
26,35:1
27,13:1
27,14:1
27,18:4
27,20:4
27,24:6
27,25:6
27,32:4
28,1:8
28,3:8
28,4:5
28,5:11
28,6:5
28,8:8
28,9:8
28,10:11
28,11:11
28,12:6
28,13:12
28,14:12
28,15:5
28,16:6
28,17:8
28,18:15
28,19:9
28,20:15
28,21:3
28,22:3
28,23:9
28,24:17
28,25:17
28,26:9
28,27:11
28,29:6
28,30:17
28,31:2
28,34:17
28,36:18
28,37:10
28,38:17
28,39:10
28,40:6
28,41:6
28,42:6
28,44:6
29,1:2
29,3:2
29,5:5
29,8:2
29,9:2
29,10:5
29,11:5
29,13:6
29,14:6
29,17:2
29,18:9
29,19:3
29,20:9
29,23:3
29,24:11
29,25:11
29,26:3
29,27:5
29,30:11
29,32:9
29,34:11
29,35:4
31,1:6
31,3:6
31,4:3
31,5:9
31,6:3
31,8:6
31,9:6
31,10:9
31,11:9
31,12:4
31,13:10
31,14:10
31,15:3
31,16:4
31,17:6
31,18:13
31,19:7
31,20:13
31,21:1
31,22:1
31,23:7
31,24:15
31,25:15
31,26:7
31,27:9
31,29:4
31,30:15
31,32:13
31,34:15
31,35:8
31,44:4
32,24:2
32,25:2
32,30:2
32,34:2
32,36:3
32,38:2
33,1:8
33,3:8
33,4:5
33,5:11
33,6:5
33,8:8
33,9:8
33,10:11
33,11:11
33,12:6
33,13:12
33,14:12
33,15:5
33,16:6
33,17:8
33,18:15
33,19:9
33,20:15
33,21:3
33,22:3
33,23:9
33,24:17
33,25:17
33,26:9
33,27:11
33,29:6
33,30:17
33,31:2
33,32:15
33,34:17
33,36:18
33,37:10
33,38:17
33,39:10
33,40:6
33,41:6
33,42:6
33,44:6
35,5:1
35,10:1
35,11:1
35,13:2
35,14:2
35,18:5
35,20:5
35,24:7
35,25:7
35,27:1
35,30:7
35,32:5
35,34:7
35,36:8
35,38:7
37,5:1
37,10:1
37,11:1
37,13:2
37,14:2
37,18:5
37,20:5
37,24:7
37,25:7
37,27:1
37,30:7
37,32:5
37,34:7
37,36:8
37,38:7
38,36:1
39,5:1
39,10:1
39,11:1
39,13:2
39,14:2
39,18:5
39,20:5
39,24:7
39,25:7
39,27:1
39,30:7
39,32:5
39,34:7
39,36:8
39,38:7
40,1:2
40,3:2
40,5:5
40,8:2
40,9:2
40,10:5
40,11:5
40,13:6
40,14:6
40,17:2
40,18:9
40,19:3
40,20:9
40,23:3
40,24:11
40,25:11
40,26:3
40,27:5
40,30:11
40,32:9
40,34:11
40,35:4
40,36:12
40,37:4
40,38:11
40,39:4
41,1:2
41,3:2
41,5:5
41,8:2
41,9:2
41,10:5
41,11:5
41,13:6
41,14:6
41,17:2
41,18:9
41,19:3
41,20:9
41,23:3
41,24:11
41,25:11
41,26:3
41,27:5
41,30:11
41,32:9
41,34:11
41,35:4
41,36:12
41,37:4
41,38:11
41,39:4
42,1:2
42,3:2
42,5:5
42,8:2
42,9:2
42,10:5
42,11:5
42,13:6
42,14:6
42,17:2
42,18:9
42,19:3
42,20:9
42,23:3
42,24:11
42,25:11
42,26:3
42,27:5
42,30:11
42,32:9
42,34:11
42,35:4
42,36:12
42,37:4
42,38:11
42,39:4
43,1:2
43,3:2
43,5:5
43,8:2
43,9:2
43,10:5
43,11:5
43,13:6
43,14:6
43,17:2
43,18:9
43,19:3
43,20:9
43,23:3
43,24:11
43,25:11
43,26:3
43,27:5
43,30:11
43,32:9
43,34:11
43,35:4
43,36:12
43,37:4
43,38:11
43,39:4
44,1:2
44,3:2
44,5:5
44,8:2
44,9:2
44,10:5
44,11:5
44,13:6
44,14:6
44,17:2
44,18:9
44,19:3
44,20:9
44,23:3
44,24:11
44,25:11
44,26:3
44,27:5
44,30:11
44,32:9
44,34:11
44,35:4
44,36:12
44,37:4
44,38:11
44,39:4
45,1:6
45,3:6
45,4:3
45,5:9
45,6:3
45,8:6
45,9:6
45,10:9
45,11:9
45,12:4
45,13:10
45,14:10
45,15:3
45,16:4
45,17:6
45,18:13
45,19:7
45,20:13
45,21:1
45,22:1
45,23:7
45,24:15
45,25:15
45,26:7
45,27:9
45,29:4
45,30:15
45,32:13
45,34:15
45,35:8
45,36:16
45,37:8
45,38:15
45,39:8
45,40:4
45,41:4
45,42:4
45,43:4
45,44:4
46,1:6
46,3:6
46,4:3
46,5:9
46,6:3
46,8:6
46,9:6
46,10:9
46,11:9
46,12:4
46,13:10
46,14:10
46,15:3
46,16:4
46,17:6
46,18:13
46,19:7
46,20:13
46,21:1
46,22:1
46,23:7
46,24:15
46,25:15
46,26:7
46,27:9
46,29:4
46,30:15
46,32:13
46,34:15
46,35:8
46,36:16
46,37:8
46,38:15
46,39:8
46,40:4
46,41:4
46,42:4
46,43:4
46,44:4
46,48:1
46,49:1
47,1:5
47,3:5
47,4:2
47,5:8
47,6:2
47,8:5
47,9:5
47,10:8
47,11:8
47,12:3
47,13:9
47,14:9
47,15:2
47,16:3
47,17:5
47,18:12
47,19:6
47,20:12
47,23:6
47,24:14
47,25:14
47,26:6
47,27:8
47,29:3
47,30:14
47,32:12
47,34:14
47,35:7
47,36:15
47,37:7
47,38:14
47,39:7
47,40:3
47,41:3
47,42:3
47,43:3
47,44:3
48,1:5
48,3:5
48,4:2
48,5:8
48,6:2
48,8:5
48,9:5
48,10:8
48,11:8
48,12:3
48,13:9
48,14:9
48,15:2
48,16:3
48,17:5
48,18:12
48,19:6
48,20:12
48,23:6
48,24:14
48,25:14
48,26:6
48,27:8
48,29:3
48,30:14
48,32:12
48,34:14
48,35:7
48,36:15
48,37:7
48,38:14
48,39:7
48,40:3
48,41:3
48,42:3
48,43:3
48,44:3
48,52:12
48,53:12
48,56:7
49,1:5
49,3:5
49,4:2
49,5:8
49,6:2
49,8:5
49,9:5
49,10:8
49,11:8
49,12:3
49,13:9
49,14:9
49,15:2
49,16:3
49,17:5
49,18:12
49,19:6
49,20:12
49,23:6
49,24:14
49,25:14
49,26:6
49,27:8
49,29:3
49,30:14
49,32:12
49,34:14
49,35:7
49,36:15
49,37:7
49,38:14
49,39:7
49,40:3
49,41:3
49,42:3
49,43:3
49,44:3
49,52:12
49,53:12
49,56:7
49,57:7
50,1:5
50,3:5
50,4:2
50,5:8
50,6:2
50,8:5
50,9:5
50,10:8
50,11:8
50,12:3
50,13:9
50,14:9
50,15:2
50,16:3
50,17:5
50,18:12
50,19:6
50,20:12
50,23:6
50,24:14
50,25:14
50,26:6
50,27:8
50,29:3
50,30:14
50,32:12
50,34:14
50,35:7
50,36:15
50,37:7
50,38:14
50,39:7
50,40:3
50,41:3
50,42:3
50,43:3
50,44:3
50,52:12
50,53:12
50,56:7
50,57:7
51,1:5
51,3:5
51,4:2
51,5:8
51,6:2
51,8:5
51,9:5
51,10:8
51,11:8
51,12:3
51,13:9
51,14:9
51,15:2
51,16:3
51,17:5
51,18:12
51,19:6
51,20:12
51,23:6
51,24:14
51,25:14
51,26:6
51,27:8
51,29:3
51,30:14
51,32:12
51,34:14
51,35:7
51,36:15
51,37:7
51,38:14
51,39:7
51,40:3
51,41:3
51,42:3
51,43:3
51,44:3
52,24:2
52,25:2
52,30:2
52,34:2
52,36:3
52,38:2
53,24:2
53,25:2
53,30:2
53,34:2
53,36:3
53,38:2
54,1:5
54,3:5
54,4:2
54,5:8
54,6:2
54,8:5
54,9:5
54,10:8
54,11:8
54,12:3
54,13:9
54,14:9
54,15:2
54,16:3
54,17:5
54,18:12
54,19:6
54,20:12
54,23:6
54,24:14
54,25:14
54,26:6
54,27:8
54,29:3
54,30:14
54,32:12
54,34:14
54,35:7
54,36:15
54,37:7
54,38:14
54,39:7
54,40:3
54,41:3
54,42:3
54,43:3
54,44:3
54,52:12
54,53:12
55,1:5
55,3:5
55,4:2
55,5:8
55,6:2
55,8:5
55,9:5
55,10:8
55,11:8
55,12:3
55,13:9
55,14:9
55,15:2
55,16:3
55,17:5
55,18:12
55,19:6
55,20:12
55,23:6
55,24:14
55,25:14
55,26:6
55,27:8
55,29:3
55,30:14
55,32:12
55,34:14
55,35:7
55,36:15
55,37:7
55,38:14
55,39:7
55,40:3
55,41:3
55,42:3
55,43:3
55,44:3
55,52:12
55,53:12
55,56:7
56,5:1
56,10:1
56,11:1
56,13:2
56,14:2
56,18:5
56,20:5
56,24:7
56,25:7
56,27:1
56,30:7
56,32:5
56,34:7
56,36:8
56,38:7
56,52:5
56,53:5
57,5:1
57,10:1
57,11:1
57,13:2
57,14:2
57,18:5
57,20:5
57,24:7
57,25:7
57,27:1
57,30:7
57,32:5
57,34:7
57,36:8
57,38:7
57,52:5
57,53:5
58,5:1
58,10:1
58,11:1
58,13:2
58,14:2
58,18:5
58,20:5
58,24:7
58,25:7
58,27:1
58,30:7
58,32:5
58,34:7
58,36:8
58,38:7
58,52:5
58,53:5

<end>

<optimal SALBP-1 value>
24


<rand seed>
467321153

